DATASET = "thpack6";
INSTANCE = "086";

WIDTH = 233;
HEIGHT = 220;
LENGTH = 587;

NO_OF_SHAPES = 15;
size = [|
  87,33,28 |
  97,70,57 |
  71,57,38 |
  63,53,47 |
  77,56,37 |
  102,67,47 |
  72,31,29 |
  84,58,38 |
  84,57,56 |
  88,76,33 |
  109,76,73 |
  57,55,54 |
  115,26,25 |
  71,50,41 |
  102,59,29 |
|];

verticality = [|
  0,1,1 |
  1,1,1 |
  1,1,1 |
  1,1,1 |
  0,1,1 |
  0,1,1 |
  0,1,1 |
  0,1,1 |
  1,1,1 |
  0,0,1 |
  1,1,1 |
  1,1,1 |
  0,1,1 |
  1,1,1 |
  0,0,1 |
|];

box_count = [
  9,
  11,
  11,
  8,
  13,
  7,
  10,
  11,
  5,
  9,
  12,
  9,
  8,
  7,
  8,
];
